Data path: /scratch/opt/lxu/CFLG/benchmarks/tree_B
Instance: treeB.700.105
Result path: /scratch/opt/lxu/CFLG/results/tree_B
Solver: Gurobi
Time limit: 7200
Formulation: LEFPAD
Cover: Small
julia --project=. src/main.jl /scratch/opt/lxu/CFLG/benchmarks/tree_B treeB.700.105 /scratch/opt/lxu/CFLG/results/tree_B Gurobi 7200 LEFPAD Small
The latest version of Julia in the `release` channel is 1.11.5+0.x64.linux.gnu. You currently have `1.11.4+0.x64.linux.gnu` installed. Run:

  juliaup update

in your terminal shell to install Julia 1.11.5+0.x64.linux.gnu and update the `release` channel to that version.
/scratch/opt/lxu/CFLG/benchmarks/tree_B Gurobi 7200.0 /scratch/opt/lxu/CFLG/results/tree_B treeB.700.105 LEFPAD Small
/scratch/opt/lxu/CFLG/benchmarks/tree_B/treeB.700.105

 read graph
data loaded


after absorb:538 700

max_piece:20
problem_graph/original graph: node: 538/700 edge: 642/804 dlt: 0.3757050471451041 break_avg_len: 1.8820364978483757 break_max_len: 6.950036573192747Vbar/V, Ebar/E(234, 538, 338, 642)
Set parameter TokenServer to value "solice01.zib.de"
Set parameter Threads to value 1
Set parameter OutputFlag to value 1
Gurobi Optimizer version 12.0.1 build v12.0.1rc0 (linux64 - "Debian GNU/Linux 12 (bookworm)")

CPU model: Intel(R) Xeon(R) Gold 5222 CPU @ 3.80GHz, instruction set [SSE2|AVX|AVX2|AVX512]
Thread count: 8 physical cores, 16 logical processors, using up to 1 threads

Non-default parameters:
Threads  1

Optimize a model with 836 rows, 1410 columns and 2350 nonzeros
Model fingerprint: 0xaedcdf43
Coefficient statistics:
  Matrix range     [1e+00, 1e+00]
  Objective range  [1e+00, 1e+00]
  Bounds range     [1e+00, 1e+00]
  RHS range        [1e+00, 1e+00]
Presolve removed 836 rows and 1410 columns
Presolve time: 0.00s
Presolve: All rows and columns removed
Iteration    Objective       Primal Inf.    Dual Inf.      Time
       0    1.3200000e+02   0.000000e+00   0.000000e+00      0s

Solved in 0 iterations and 0.00 seconds (0.00 work units)
Optimal objective  1.320000000e+02

User-callback calls 35, time in user-callback 0.00 sec
elapsed CPU time: 1.147704 seconds
Set parameter TokenServer to value "solice01.zib.de"
Set parameter Threads to value 1
Set parameter OutputFlag to value 1
Set parameter MIPGap to value 0.0001
Set parameter MIPGapAbs to value 0.999998
Set parameter TimeLimit to value 7198.852296

 more cuts: false 0.3757050471451041 false
is_attach:trueformulation:LEFPAD0 470 0

 model loaded

Gurobi Optimizer version 12.0.1 build v12.0.1rc0 (linux64 - "Debian GNU/Linux 12 (bookworm)")

CPU model: Intel(R) Xeon(R) Gold 5222 CPU @ 3.80GHz, instruction set [SSE2|AVX|AVX2|AVX512]
Thread count: 8 physical cores, 16 logical processors, using up to 1 threads

Non-default parameters:
TimeLimit  7198.852296
MIPGapAbs  0.999998
Threads  1

Optimize a model with 6779 rows, 5492 columns and 16803 nonzeros
Model fingerprint: 0xa71f84eb
Variable types: 2563 continuous, 2929 integer (2929 binary)
Coefficient statistics:
  Matrix range     [3e-03, 7e+00]
  Objective range  [1e+00, 1e+00]
  Bounds range     [4e-03, 7e+00]
  RHS range        [1e-06, 7e+00]
Presolve removed 4737 rows and 3256 columns
Presolve time: 0.03s
Presolved: 2042 rows, 2236 columns, 6256 nonzeros
Variable types: 1235 continuous, 1001 integer (1001 binary)
Found heuristic solution: objective 1079.0000000

Explored 0 nodes (0 simplex iterations) in 0.03 seconds (0.03 work units)
Thread count was 1 (of 16 available processors)

Solution count 1: 1079 

Optimal solution found (tolerance 1.00e-04)
Best objective 1.079000000000e+03, best bound 1.079000000000e+03, gap 0.0000%

User-callback calls 542, time in user-callback 0.00 sec

 sepatime0 0 0
1079.0Stat(MathOptInterface.OPTIMAL, 1079.0, 1079.0, 0.0, 0.0, 1.147704, 0.033010005950927734, 0, Main.CFLG.LEFPAD, "", #undef)
ERROR: LoadError: SystemError: opening file "/scratch/opt/lxu/CFLG/results/tree_B/treeB.700.105.LEFPAD.Small": No such file or directory
Stacktrace:
 [1] systemerror(p::String, errno::Int32; extrainfo::Nothing)
   @ Base ./error.jl:176
 [2] systemerror
   @ ./error.jl:175 [inlined]
 [3] open(fname::String; lock::Bool, read::Nothing, write::Nothing, create::Nothing, truncate::Bool, append::Nothing)
   @ Base ./iostream.jl:295
 [4] open
   @ ./iostream.jl:277 [inlined]
 [5] open(fname::String, mode::String; lock::Bool)
   @ Base ./iostream.jl:358
 [6] open
   @ ./iostream.jl:357 [inlined]
 [7] main(args::Vector{String})
   @ Main /scratch/opt/lxu/CFLG/src/main.jl:51
 [8] top-level scope
   @ /scratch/opt/lxu/CFLG/src/main.jl:57
in expression starting at /scratch/opt/lxu/CFLG/src/main.jl:57
srun: error: htc-cmp482: task 0: Exited with exit code 1
